feasible solution found by trivial heuristic after 0.0 seconds, objective value 4.177309e+06
presolving:
(round 1, fast)       4199 del vars, 0 del conss, 0 add conss, 0 chg bounds, 0 chg sides, 0 chg coeffs, 0 upgd conss, 0 impls, 4199 clqs
   (0.1s) running MILP presolver
   (0.2s) MILP presolver found nothing
(round 2, exhaustive) 4199 del vars, 0 del conss, 0 add conss, 0 chg bounds, 0 chg sides, 0 chg coeffs, 6759 upgd conss, 0 impls, 4199 clqs
   (0.3s) probing: 51/2683 (1.9%) - 0 fixings, 0 aggregations, 0 implications, 0 bound changes
   (0.3s) probing aborted: 50/50 successive totally useless probings
   (0.4s) symmetry computation started: requiring (bin +, int -, cont +), (fixed: bin -, int +, cont -)
   (0.4s) no symmetry present
presolving (3 rounds: 3 fast, 2 medium, 2 exhaustive):
 4199 deleted vars, 0 deleted constraints, 0 added constraints, 0 tightened bounds, 0 added holes, 0 changed sides, 0 changed coefficients
 0 implications, 4199 cliques
presolved problem has 2683 variables (2683 bin, 0 int, 0 impl, 0 cont) and 6759 constraints
   4199 constraints of type <setppc>
   2560 constraints of type <logicor>
Presolving Time: 0.42

 time | node  | left  |LP iter|LP it/n|mem/heur|mdpt |vars |cons |rows |cuts |sepa|confs|strbr|  dualbound   | primalbound  |  gap   | compl. 
t 0.5s|     1 |     0 |     0 |     - | trivial|   0 |2683 |6759 |   0 |   0 |  0 |   0 |   0 | 1.321900e+07 | 1.261259e+07 |   4.81%| unknown
p 0.5s|     1 |     0 |     0 |     - |   locks|   0 |2683 |6759 |6759 |   0 |  0 |   0 |   0 | 1.321900e+07 | 1.267702e+07 |   4.28%| unknown
i 0.5s|     1 |     0 |     0 |     - |  oneopt|   0 |2683 |6759 |6759 |   0 |  0 |   0 |   0 | 1.321900e+07 | 1.268010e+07 |   4.25%| unknown
  0.9s|     1 |     0 |  1093 |     - |    74M |   0 |2683 |6759 |6759 |   0 |  0 |   0 |   0 | 1.273165e+07 | 1.268010e+07 |   0.41%| unknown
  1.1s|     1 |     0 |  1242 |     - |    76M |   0 |2683 |6759 |6760 |   1 |  1 |   0 |   0 | 1.273087e+07 | 1.268010e+07 |   0.40%| unknown
  1.3s|     1 |     0 |  1399 |     - |    77M |   0 |2683 |6759 |6761 |   2 |  2 |   0 |   0 | 1.273058e+07 | 1.268010e+07 |   0.40%| unknown
  1.5s|     1 |     0 |  1548 |     - |    80M |   0 |2683 |6759 |6762 |   3 |  3 |   0 |   0 | 1.273036e+07 | 1.268010e+07 |   0.40%| unknown
  1.7s|     1 |     0 |  1720 |     - |    81M |   0 |2683 |6759 |6763 |   4 |  4 |   0 |   0 | 1.273022e+07 | 1.268010e+07 |   0.40%| unknown
  1.8s|     1 |     0 |  1859 |     - |    83M |   0 |2683 |6759 |6764 |   5 |  5 |   0 |   0 | 1.273018e+07 | 1.268010e+07 |   0.39%| unknown
  2.0s|     1 |     0 |  1985 |     - |    85M |   0 |2683 |6759 |6765 |   6 |  6 |   0 |   0 | 1.273015e+07 | 1.268010e+07 |   0.39%| unknown
  2.2s|     1 |     0 |  2119 |     - |    86M |   0 |2683 |6759 |6766 |   7 |  7 |   0 |   0 | 1.273012e+07 | 1.268010e+07 |   0.39%| unknown
  2.4s|     1 |     0 |  2227 |     - |    87M |   0 |2683 |6759 |6767 |   8 |  8 |   0 |   0 | 1.273011e+07 | 1.268010e+07 |   0.39%| unknown
  2.5s|     1 |     0 |  2333 |     - |    88M |   0 |2683 |6759 |6768 |   9 |  9 |   0 |   0 | 1.273009e+07 | 1.268010e+07 |   0.39%| unknown
  2.6s|     1 |     0 |  2435 |     - |    91M |   0 |2683 |6759 |6769 |  10 | 10 |   0 |   0 | 1.273008e+07 | 1.268010e+07 |   0.39%| unknown
  2.7s|     1 |     0 |  2511 |     - |    92M |   0 |2683 |6759 |6771 |  12 | 11 |   0 |   0 | 1.273008e+07 | 1.268010e+07 |   0.39%| unknown
 time | node  | left  |LP iter|LP it/n|mem/heur|mdpt |vars |cons |rows |cuts |sepa|confs|strbr|  dualbound   | primalbound  |  gap   | compl. 
  2.8s|     1 |     0 |  2588 |     - |    92M |   0 |2683 |6759 |6772 |  13 | 12 |   0 |   0 | 1.273007e+07 | 1.268010e+07 |   0.39%| unknown
  2.9s|     1 |     0 |  2688 |     - |    94M |   0 |2683 |6759 |6773 |  14 | 13 |   0 |   0 | 1.273007e+07 | 1.268010e+07 |   0.39%| unknown
  2.9s|     1 |     0 |  2732 |     - |    94M |   0 |2683 |6759 |6774 |  15 | 14 |   0 |   0 | 1.273007e+07 | 1.268010e+07 |   0.39%| unknown
  3.0s|     1 |     0 |  2749 |     - |    95M |   0 |2683 |6759 |6775 |  16 | 15 |   0 |   0 | 1.273007e+07 | 1.268010e+07 |   0.39%| unknown
d 3.4s|     1 |     0 |  3549 |     - |farkasdi|   0 |2683 |6759 |6775 |   0 | 17 |   0 |   0 | 1.273007e+07 | 1.268494e+07 |   0.36%| unknown
L20.6s|     1 |     0 |  3549 |     - |    rens|   0 |2683 |6759 |6775 |  16 | 17 |   0 |   0 | 1.273007e+07 | 1.269509e+07 |   0.28%| unknown
 20.7s|     1 |     0 |  3549 |     - |    96M |   0 |2683 |6759 |6775 |  16 | 17 |   0 |   0 | 1.273007e+07 | 1.269509e+07 |   0.28%| unknown
 20.7s|     1 |     0 |  3558 |     - |    96M |   0 |2683 |6759 |6776 |  17 | 18 |   0 |   0 | 1.273007e+07 | 1.269509e+07 |   0.28%| unknown
 20.7s|     1 |     0 |  3577 |     - |    96M |   0 |2683 |6759 |6777 |  18 | 19 |   0 |   0 | 1.273006e+07 | 1.269509e+07 |   0.28%| unknown
 30.5s|     1 |     2 |  3577 |     - |    96M |   0 |2683 |6759 |6777 |  18 | 19 |   0 |  21 | 1.272891e+07 | 1.269509e+07 |   0.27%| unknown
  101s|   100 |     3 | 21755 | 191.7 |   108M |  17 |2683 |6851 |6781 |  45 |  0 | 118 | 482 | 1.271474e+07 | 1.269509e+07 |   0.15%|  78.14%

SCIP Status        : problem is solved [optimal solution found]
Solving Time (sec) : 108.94
Solving Nodes      : 169
Primal Bound       : +1.26950890675604e+07 (149 solutions)
Dual Bound         : +1.26950890675604e+07
Gap                : 0.00 %
Solve Status: optimal
Solve Time: 108.95 seconds
